c "random instance"
p edges 150 3406
e 1 3
e 1 8
e 1 10
e 1 12
e 1 22
e 1 24
e 1 25
e 1 29
e 1 32
e 1 33
e 1 39
e 1 50
e 1 52
e 1 60
e 1 67
e 1 69
e 1 71
e 1 73
e 1 79
e 1 80
e 1 82
e 1 88
e 1 96
e 1 100
e 1 102
e 1 103
e 1 108
e 1 116
e 1 117
e 1 121
e 1 122
e 1 127
e 1 129
e 1 130
e 1 140
e 1 143
e 1 144
e 1 146
e 1 147
e 1 148
e 1 149
e 1 150
e 2 3
e 2 6
e 2 7
e 2 11
e 2 14
e 2 20
e 2 21
e 2 23
e 2 24
e 2 25
e 2 26
e 2 28
e 2 29
e 2 34
e 2 42
e 2 45
e 2 55
e 2 61
e 2 74
e 2 75
e 2 78
e 2 79
e 2 84
e 2 86
e 2 92
e 2 94
e 2 95
e 2 106
e 2 108
e 2 117
e 2 122
e 2 124
e 2 127
e 2 129
e 2 130
e 2 133
e 2 135
e 2 141
e 2 142
e 2 145
e 2 147
e 3 8
e 3 9
e 3 10
e 3 11
e 3 13
e 3 15
e 3 22
e 3 24
e 3 25
e 3 27
e 3 28
e 3 32
e 3 34
e 3 35
e 3 36
e 3 38
e 3 40
e 3 42
e 3 43
e 3 45
e 3 51
e 3 53
e 3 54
e 3 57
e 3 68
e 3 72
e 3 75
e 3 76
e 3 80
e 3 81
e 3 85
e 3 90
e 3 97
e 3 98
e 3 104
e 3 106
e 3 107
e 3 110
e 3 123
e 3 127
e 3 128
e 3 129
e 3 136
e 3 137
e 3 142
e 3 145
e 3 149
e 4 6
e 4 13
e 4 14
e 4 15
e 4 17
e 4 20
e 4 23
e 4 26
e 4 27
e 4 28
e 4 30
e 4 31
e 4 35
e 4 37
e 4 43
e 4 47
e 4 49
e 4 50
e 4 51
e 4 54
e 4 58
e 4 67
e 4 74
e 4 80
e 4 82
e 4 84
e 4 85
e 4 88
e 4 96
e 4 101
e 4 102
e 4 104
e 4 113
e 4 117
e 4 122
e 4 127
e 4 129
e 4 131
e 4 132
e 4 136
e 4 139
e 4 140
e 4 145
e 5 12
e 5 15
e 5 22
e 5 26
e 5 31
e 5 33
e 5 42
e 5 46
e 5 48
e 5 52
e 5 59
e 5 61
e 5 62
e 5 64
e 5 68
e 5 71
e 5 74
e 5 75
e 5 79
e 5 83
e 5 85
e 5 87
e 5 89
e 5 90
e 5 95
e 5 96
e 5 99
e 5 100
e 5 104
e 5 105
e 5 108
e 5 109
e 5 110
e 5 118
e 5 119
e 5 126
e 5 129
e 5 130
e 5 132
e 5 133
e 5 135
e 5 141
e 5 144
e 5 146
e 5 148
e 5 150
e 6 9
e 6 11
e 6 15
e 6 17
e 6 25
e 6 27
e 6 30
e 6 39
e 6 41
e 6 43
e 6 45
e 6 47
e 6 49
e 6 51
e 6 55
e 6 64
e 6 67
e 6 70
e 6 72
e 6 73
e 6 75
e 6 79
e 6 86
e 6 87
e 6 89
e 6 94
e 6 99
e 6 104
e 6 106
e 6 108
e 6 110
e 6 113
e 6 114
e 6 117
e 6 121
e 6 122
e 6 126
e 6 131
e 6 137
e 6 140
e 7 10
e 7 12
e 7 18
e 7 25
e 7 31
e 7 33
e 7 35
e 7 38
e 7 46
e 7 51
e 7 52
e 7 57
e 7 58
e 7 59
e 7 62
e 7 63
e 7 64
e 7 65
e 7 69
e 7 70
e 7 75
e 7 78
e 7 80
e 7 81
e 7 87
e 7 90
e 7 94
e 7 98
e 7 101
e 7 102
e 7 104
e 7 105
e 7 108
e 7 122
e 7 124
e 7 125
e 7 126
e 7 131
e 7 139
e 7 143
e 7 144
e 7 147
e 7 148
e 8 11
e 8 12
e 8 13
e 8 14
e 8 18
e 8 19
e 8 20
e 8 21
e 8 29
e 8 39
e 8 40
e 8 43
e 8 45
e 8 46
e 8 47
e 8 52
e 8 53
e 8 56
e 8 58
e 8 59
e 8 75
e 8 81
e 8 85
e 8 87
e 8 91
e 8 94
e 8 96
e 8 99
e 8 107
e 8 109
e 8 113
e 8 114
e 8 117
e 8 123
e 8 125
e 8 131
e 8 132
e 8 149
e 9 10
e 9 13
e 9 15
e 9 23
e 9 26
e 9 32
e 9 34
e 9 38
e 9 39
e 9 48
e 9 51
e 9 52
e 9 61
e 9 67
e 9 68
e 9 69
e 9 70
e 9 75
e 9 76
e 9 81
e 9 84
e 9 92
e 9 93
e 9 95
e 9 98
e 9 104
e 9 106
e 9 108
e 9 115
e 9 116
e 9 118
e 9 119
e 9 120
e 9 122
e 9 130
e 9 147
e 9 148
e 9 149
e 10 11
e 10 19
e 10 20
e 10 21
e 10 23
e 10 26
e 10 32
e 10 33
e 10 34
e 10 35
e 10 40
e 10 51
e 10 54
e 10 58
e 10 61
e 10 66
e 10 67
e 10 69
e 10 71
e 10 73
e 10 79
e 10 84
e 10 93
e 10 97
e 10 98
e 10 104
e 10 108
e 10 109
e 10 111
e 10 115
e 10 116
e 10 118
e 10 120
e 10 122
e 10 125
e 10 132
e 10 133
e 10 136
e 10 137
e 10 139
e 10 141
e 10 145
e 10 148
e 11 17
e 11 22
e 11 25
e 11 32
e 11 34
e 11 36
e 11 37
e 11 38
e 11 42
e 11 43
e 11 47
e 11 48
e 11 49
e 11 52
e 11 54
e 11 55
e 11 58
e 11 64
e 11 69
e 11 73
e 11 74
e 11 76
e 11 88
e 11 91
e 11 94
e 11 107
e 11 115
e 11 118
e 11 120
e 11 122
e 11 125
e 11 130
e 11 132
e 11 138
e 11 147
e 11 149
e 12 13
e 12 14
e 12 18
e 12 22
e 12 24
e 12 28
e 12 30
e 12 41
e 12 49
e 12 51
e 12 52
e 12 56
e 12 59
e 12 60
e 12 61
e 12 64
e 12 66
e 12 74
e 12 80
e 12 84
e 12 89
e 12 91
e 12 95
e 12 102
e 12 105
e 12 108
e 12 112
e 12 113
e 12 115
e 12 119
e 12 127
e 12 130
e 12 131
e 12 133
e 12 135
e 12 137
e 12 138
e 12 140
e 12 142
e 12 143
e 12 144
e 12 145
e 12 148
e 13 16
e 13 17
e 13 18
e 13 19
e 13 21
e 13 22
e 13 24
e 13 25
e 13 30
e 13 31
e 13 33
e 13 40
e 13 42
e 13 46
e 13 47
e 13 49
e 13 50
e 13 53
e 13 57
e 13 58
e 13 64
e 13 67
e 13 69
e 13 73
e 13 74
e 13 76
e 13 81
e 13 84
e 13 92
e 13 95
e 13 98
e 13 100
e 13 103
e 13 104
e 13 106
e 13 108
e 13 109
e 13 110
e 13 115
e 13 117
e 13 125
e 13 131
e 13 134
e 13 136
e 13 137
e 13 138
e 13 140
e 13 141
e 13 142
e 13 149
e 14 18
e 14 22
e 14 25
e 14 28
e 14 33
e 14 40
e 14 42
e 14 47
e 14 50
e 14 54
e 14 58
e 14 61
e 14 62
e 14 63
e 14 64
e 14 67
e 14 69
e 14 70
e 14 71
e 14 72
e 14 75
e 14 77
e 14 78
e 14 88
e 14 90
e 14 96
e 14 99
e 14 105
e 14 106
e 14 112
e 14 115
e 14 117
e 14 120
e 14 121
e 14 126
e 14 128
e 14 129
e 14 131
e 14 136
e 14 138
e 15 16
e 15 18
e 15 19
e 15 20
e 15 25
e 15 30
e 15 33
e 15 34
e 15 35
e 15 39
e 15 40
e 15 43
e 15 44
e 15 47
e 15 50
e 15 54
e 15 60
e 15 67
e 15 72
e 15 74
e 15 75
e 15 76
e 15 78
e 15 79
e 15 81
e 15 82
e 15 85
e 15 86
e 15 93
e 15 98
e 15 105
e 15 111
e 15 113
e 15 117
e 15 123
e 15 133
e 15 139
e 15 140
e 15 142
e 15 144
e 15 149
e 15 150
e 16 23
e 16 24
e 16 26
e 16 29
e 16 33
e 16 37
e 16 38
e 16 42
e 16 43
e 16 48
e 16 51
e 16 54
e 16 57
e 16 59
e 16 65
e 16 66
e 16 67
e 16 79
e 16 83
e 16 84
e 16 87
e 16 89
e 16 90
e 16 92
e 16 93
e 16 95
e 16 96
e 16 103
e 16 104
e 16 112
e 16 114
e 16 120
e 16 148
e 16 149
e 16 150
e 17 23
e 17 24
e 17 26
e 17 28
e 17 30
e 17 32
e 17 40
e 17 43
e 17 45
e 17 50
e 17 52
e 17 56
e 17 63
e 17 65
e 17 66
e 17 67
e 17 68
e 17 79
e 17 80
e 17 85
e 17 86
e 17 87
e 17 88
e 17 91
e 17 93
e 17 100
e 17 113
e 17 115
e 17 117
e 17 120
e 17 122
e 17 123
e 17 124
e 17 128
e 17 130
e 17 134
e 17 145
e 17 148
e 17 150
e 18 24
e 18 27
e 18 29
e 18 30
e 18 32
e 18 33
e 18 41
e 18 45
e 18 46
e 18 51
e 18 56
e 18 65
e 18 66
e 18 68
e 18 73
e 18 75
e 18 80
e 18 82
e 18 86
e 18 88
e 18 93
e 18 94
e 18 96
e 18 99
e 18 100
e 18 107
e 18 110
e 18 121
e 18 122
e 18 127
e 18 136
e 18 137
e 18 139
e 18 142
e 18 144
e 18 147
e 19 22
e 19 24
e 19 28
e 19 30
e 19 32
e 19 35
e 19 44
e 19 58
e 19 60
e 19 62
e 19 63
e 19 79
e 19 94
e 19 101
e 19 106
e 19 111
e 19 114
e 19 117
e 19 118
e 19 119
e 19 126
e 19 128
e 19 130
e 19 131
e 19 132
e 19 135
e 19 142
e 19 147
e 20 25
e 20 26
e 20 34
e 20 35
e 20 38
e 20 39
e 20 41
e 20 42
e 20 48
e 20 53
e 20 55
e 20 65
e 20 66
e 20 67
e 20 71
e 20 72
e 20 76
e 20 77
e 20 79
e 20 80
e 20 85
e 20 91
e 20 93
e 20 98
e 20 102
e 20 105
e 20 106
e 20 107
e 20 108
e 20 115
e 20 117
e 20 118
e 20 120
e 20 121
e 20 129
e 20 150
e 21 24
e 21 26
e 21 28
e 21 29
e 21 30
e 21 38
e 21 42
e 21 51
e 21 57
e 21 58
e 21 59
e 21 60
e 21 67
e 21 69
e 21 70
e 21 73
e 21 76
e 21 77
e 21 79
e 21 87
e 21 88
e 21 90
e 21 91
e 21 95
e 21 105
e 21 107
e 21 110
e 21 111
e 21 116
e 21 117
e 21 120
e 21 121
e 21 126
e 21 133
e 21 139
e 21 140
e 21 144
e 21 150
e 22 23
e 22 29
e 22 31
e 22 33
e 22 34
e 22 36
e 22 37
e 22 44
e 22 46
e 22 48
e 22 52
e 22 58
e 22 59
e 22 64
e 22 67
e 22 69
e 22 74
e 22 76
e 22 86
e 22 88
e 22 90
e 22 92
e 22 105
e 22 109
e 22 110
e 22 113
e 22 117
e 22 126
e 22 130
e 22 137
e 22 143
e 22 147
e 22 148
e 22 150
e 23 31
e 23 35
e 23 40
e 23 45
e 23 46
e 23 48
e 23 57
e 23 59
e 23 66
e 23 72
e 23 76
e 23 79
e 23 82
e 23 84
e 23 89
e 23 92
e 23 98
e 23 99
e 23 101
e 23 107
e 23 109
e 23 111
e 23 113
e 23 115
e 23 121
e 23 130
e 23 133
e 23 138
e 23 139
e 23 143
e 23 144
e 23 145
e 23 148
e 23 150
e 24 26
e 24 29
e 24 30
e 24 31
e 24 35
e 24 37
e 24 38
e 24 43
e 24 44
e 24 48
e 24 51
e 24 52
e 24 55
e 24 59
e 24 63
e 24 64
e 24 70
e 24 74
e 24 83
e 24 90
e 24 93
e 24 99
e 24 100
e 24 103
e 24 108
e 24 110
e 24 113
e 24 115
e 24 117
e 24 119
e 24 122
e 24 126
e 24 127
e 24 129
e 24 132
e 24 134
e 24 137
e 24 142
e 24 144
e 24 145
e 24 146
e 24 150
e 25 29
e 25 32
e 25 40
e 25 45
e 25 47
e 25 48
e 25 52
e 25 54
e 25 56
e 25 57
e 25 58
e 25 59
e 25 60
e 25 63
e 25 67
e 25 68
e 25 69
e 25 71
e 25 73
e 25 74
e 25 78
e 25 80
e 25 82
e 25 83
e 25 84
e 25 87
e 25 88
e 25 89
e 25 91
e 25 92
e 25 94
e 25 96
e 25 97
e 25 98
e 25 99
e 25 100
e 25 106
e 25 111
e 25 117
e 25 119
e 25 123
e 25 124
e 25 135
e 25 143
e 25 145
e 25 147
e 25 149
e 26 27
e 26 28
e 26 30
e 26 32
e 26 34
e 26 37
e 26 44
e 26 45
e 26 50
e 26 51
e 26 53
e 26 54
e 26 66
e 26 74
e 26 78
e 26 79
e 26 80
e 26 83
e 26 89
e 26 96
e 26 97
e 26 103
e 26 105
e 26 106
e 26 114
e 26 118
e 26 126
e 26 135
e 26 140
e 26 141
e 26 143
e 26 146
e 26 148
e 27 29
e 27 30
e 27 35
e 27 36
e 27 38
e 27 40
e 27 41
e 27 42
e 27 52
e 27 56
e 27 58
e 27 74
e 27 77
e 27 82
e 27 83
e 27 86
e 27 90
e 27 96
e 27 98
e 27 106
e 27 112
e 27 113
e 27 120
e 27 123
e 27 131
e 27 137
e 27 149
e 27 150
e 28 30
e 28 32
e 28 36
e 28 37
e 28 44
e 28 45
e 28 53
e 28 56
e 28 57
e 28 65
e 28 66
e 28 69
e 28 70
e 28 73
e 28 75
e 28 76
e 28 77
e 28 79
e 28 80
e 28 81
e 28 83
e 28 84
e 28 85
e 28 86
e 28 87
e 28 88
e 28 102
e 28 112
e 28 115
e 28 119
e 28 120
e 28 121
e 28 125
e 28 128
e 28 136
e 28 137
e 28 139
e 28 141
e 28 142
e 28 144
e 28 145
e 28 148
e 28 149
e 29 33
e 29 34
e 29 35
e 29 37
e 29 40
e 29 42
e 29 43
e 29 52
e 29 53
e 29 55
e 29 59
e 29 60
e 29 61
e 29 64
e 29 65
e 29 66
e 29 73
e 29 76
e 29 80
e 29 82
e 29 83
e 29 84
e 29 90
e 29 91
e 29 93
e 29 95
e 29 98
e 29 100
e 29 102
e 29 107
e 29 112
e 29 116
e 29 120
e 29 130
e 29 131
e 29 136
e 29 139
e 29 142
e 29 145
e 29 146
e 30 34
e 30 46
e 30 47
e 30 48
e 30 49
e 30 51
e 30 52
e 30 55
e 30 57
e 30 59
e 30 61
e 30 63
e 30 65
e 30 66
e 30 69
e 30 71
e 30 73
e 30 74
e 30 84
e 30 86
e 30 87
e 30 93
e 30 96
e 30 98
e 30 108
e 30 109
e 30 112
e 30 114
e 30 119
e 30 121
e 30 123
e 30 124
e 30 125
e 30 127
e 30 132
e 30 137
e 30 141
e 30 142
e 30 143
e 30 147
e 30 149
e 31 35
e 31 42
e 31 43
e 31 47
e 31 49
e 31 50
e 31 51
e 31 55
e 31 57
e 31 61
e 31 64
e 31 68
e 31 72
e 31 73
e 31 75
e 31 84
e 31 89
e 31 93
e 31 94
e 31 98
e 31 99
e 31 109
e 31 112
e 31 116
e 31 130
e 31 134
e 31 137
e 31 144
e 31 146
e 31 147
e 31 149
e 31 150
e 32 33
e 32 35
e 32 37
e 32 46
e 32 47
e 32 51
e 32 52
e 32 57
e 32 58
e 32 59
e 32 60
e 32 61
e 32 68
e 32 70
e 32 72
e 32 74
e 32 81
e 32 83
e 32 90
e 32 91
e 32 92
e 32 93
e 32 96
e 32 97
e 32 101
e 32 102
e 32 105
e 32 107
e 32 112
e 32 115
e 32 120
e 32 126
e 32 127
e 32 130
e 32 133
e 32 145
e 32 146
e 32 150
e 33 35
e 33 37
e 33 38
e 33 41
e 33 44
e 33 45
e 33 46
e 33 47
e 33 48
e 33 51
e 33 53
e 33 55
e 33 56
e 33 57
e 33 58
e 33 66
e 33 70
e 33 85
e 33 87
e 33 90
e 33 101
e 33 103
e 33 107
e 33 112
e 33 113
e 33 115
e 33 116
e 33 117
e 33 119
e 33 121
e 33 122
e 33 125
e 33 128
e 33 130
e 33 135
e 33 143
e 33 146
e 33 147
e 34 35
e 34 37
e 34 41
e 34 42
e 34 43
e 34 44
e 34 45
e 34 51
e 34 58
e 34 59
e 34 61
e 34 63
e 34 65
e 34 72
e 34 73
e 34 76
e 34 87
e 34 89
e 34 90
e 34 91
e 34 95
e 34 101
e 34 105
e 34 106
e 34 107
e 34 108
e 34 111
e 34 119
e 34 120
e 34 125
e 34 126
e 34 132
e 34 138
e 34 139
e 34 147
e 34 148
e 35 36
e 35 42
e 35 48
e 35 49
e 35 52
e 35 56
e 35 60
e 35 62
e 35 63
e 35 67
e 35 79
e 35 80
e 35 81
e 35 89
e 35 91
e 35 98
e 35 99
e 35 101
e 35 106
e 35 107
e 35 108
e 35 114
e 35 117
e 35 123
e 35 124
e 35 127
e 35 131
e 35 134
e 35 143
e 35 150
e 36 39
e 36 41
e 36 44
e 36 49
e 36 53
e 36 54
e 36 57
e 36 62
e 36 65
e 36 66
e 36 68
e 36 69
e 36 71
e 36 72
e 36 73
e 36 78
e 36 83
e 36 85
e 36 93
e 36 94
e 36 95
e 36 96
e 36 97
e 36 98
e 36 105
e 36 107
e 36 109
e 36 117
e 36 123
e 36 125
e 36 129
e 36 131
e 36 141
e 36 142
e 36 143
e 36 146
e 36 149
e 36 150
e 37 38
e 37 42
e 37 44
e 37 50
e 37 51
e 37 54
e 37 57
e 37 58
e 37 61
e 37 65
e 37 72
e 37 80
e 37 87
e 37 88
e 37 89
e 37 93
e 37 95
e 37 102
e 37 104
e 37 105
e 37 117
e 37 119
e 37 123
e 37 124
e 37 128
e 37 132
e 37 133
e 37 136
e 37 137
e 37 140
e 37 141
e 37 142
e 37 145
e 37 148
e 37 150
e 38 40
e 38 41
e 38 43
e 38 47
e 38 58
e 38 60
e 38 68
e 38 70
e 38 76
e 38 81
e 38 90
e 38 95
e 38 102
e 38 103
e 38 104
e 38 106
e 38 110
e 38 111
e 38 113
e 38 115
e 38 119
e 38 120
e 38 130
e 38 134
e 38 135
e 38 139
e 38 140
e 38 141
e 38 143
e 38 148
e 39 41
e 39 42
e 39 43
e 39 48
e 39 51
e 39 54
e 39 55
e 39 62
e 39 64
e 39 65
e 39 68
e 39 76
e 39 85
e 39 92
e 39 95
e 39 99
e 39 109
e 39 111
e 39 112
e 39 122
e 39 124
e 39 128
e 39 131
e 39 138
e 39 144
e 39 150
e 40 42
e 40 45
e 40 48
e 40 52
e 40 53
e 40 60
e 40 62
e 40 67
e 40 68
e 40 71
e 40 76
e 40 82
e 40 83
e 40 84
e 40 85
e 40 89
e 40 92
e 40 97
e 40 99
e 40 102
e 40 104
e 40 109
e 40 117
e 40 120
e 40 127
e 40 132
e 40 135
e 40 139
e 40 144
e 40 145
e 40 146
e 40 148
e 40 149
e 41 45
e 41 48
e 41 52
e 41 61
e 41 62
e 41 64
e 41 66
e 41 67
e 41 68
e 41 73
e 41 74
e 41 76
e 41 77
e 41 79
e 41 81
e 41 83
e 41 91
e 41 92
e 41 94
e 41 97
e 41 98
e 41 99
e 41 108
e 41 110
e 41 112
e 41 113
e 41 115
e 41 116
e 41 117
e 41 120
e 41 125
e 41 126
e 41 127
e 41 130
e 41 136
e 41 138
e 41 143
e 41 145
e 42 44
e 42 45
e 42 46
e 42 50
e 42 51
e 42 52
e 42 59
e 42 60
e 42 61
e 42 62
e 42 71
e 42 72
e 42 74
e 42 78
e 42 89
e 42 90
e 42 99
e 42 102
e 42 110
e 42 114
e 42 121
e 42 122
e 42 125
e 42 126
e 42 128
e 42 130
e 42 140
e 42 145
e 42 149
e 43 47
e 43 48
e 43 50
e 43 56
e 43 58
e 43 59
e 43 62
e 43 64
e 43 66
e 43 68
e 43 71
e 43 78
e 43 79
e 43 80
e 43 81
e 43 83
e 43 84
e 43 94
e 43 95
e 43 98
e 43 99
e 43 103
e 43 105
e 43 109
e 43 110
e 43 113
e 43 114
e 43 117
e 43 118
e 43 121
e 43 122
e 43 124
e 43 127
e 43 128
e 43 131
e 43 132
e 43 133
e 43 134
e 43 136
e 43 138
e 43 141
e 44 45
e 44 50
e 44 62
e 44 74
e 44 78
e 44 83
e 44 84
e 44 86
e 44 91
e 44 93
e 44 94
e 44 98
e 44 100
e 44 104
e 44 105
e 44 107
e 44 108
e 44 110
e 44 111
e 44 113
e 44 114
e 44 117
e 44 122
e 44 124
e 44 125
e 44 127
e 44 130
e 44 131
e 44 133
e 44 135
e 44 138
e 44 141
e 44 144
e 44 146
e 44 149
e 45 47
e 45 58
e 45 59
e 45 72
e 45 73
e 45 74
e 45 78
e 45 80
e 45 84
e 45 85
e 45 86
e 45 87
e 45 89
e 45 90
e 45 91
e 45 98
e 45 100
e 45 102
e 45 103
e 45 105
e 45 111
e 45 112
e 45 116
e 45 117
e 45 120
e 45 124
e 45 126
e 45 128
e 45 130
e 45 131
e 45 136
e 45 137
e 45 138
e 45 141
e 45 144
e 45 147
e 46 47
e 46 48
e 46 49
e 46 51
e 46 60
e 46 64
e 46 65
e 46 67
e 46 69
e 46 71
e 46 72
e 46 73
e 46 80
e 46 82
e 46 84
e 46 85
e 46 86
e 46 88
e 46 89
e 46 92
e 46 93
e 46 94
e 46 99
e 46 100
e 46 106
e 46 112
e 46 113
e 46 117
e 46 121
e 46 125
e 46 132
e 46 133
e 46 135
e 46 136
e 46 137
e 46 139
e 46 140
e 46 141
e 46 142
e 46 146
e 47 50
e 47 56
e 47 58
e 47 61
e 47 72
e 47 79
e 47 82
e 47 83
e 47 84
e 47 88
e 47 89
e 47 91
e 47 92
e 47 95
e 47 96
e 47 97
e 47 98
e 47 102
e 47 103
e 47 105
e 47 106
e 47 110
e 47 111
e 47 119
e 47 121
e 47 126
e 47 127
e 47 128
e 47 130
e 47 135
e 47 136
e 47 138
e 47 140
e 48 50
e 48 58
e 48 59
e 48 63
e 48 67
e 48 70
e 48 71
e 48 73
e 48 74
e 48 75
e 48 81
e 48 83
e 48 85
e 48 86
e 48 87
e 48 89
e 48 93
e 48 96
e 48 97
e 48 103
e 48 110
e 48 111
e 48 116
e 48 119
e 48 120
e 48 121
e 48 122
e 48 123
e 48 125
e 48 127
e 48 135
e 48 136
e 48 140
e 48 143
e 48 150
e 49 51
e 49 55
e 49 63
e 49 64
e 49 70
e 49 71
e 49 73
e 49 76
e 49 77
e 49 78
e 49 80
e 49 84
e 49 85
e 49 87
e 49 92
e 49 94
e 49 97
e 49 98
e 49 101
e 49 107
e 49 109
e 49 110
e 49 112
e 49 119
e 49 124
e 49 125
e 49 130
e 49 132
e 49 134
e 49 136
e 49 137
e 49 138
e 49 139
e 49 144
e 49 149
e 50 52
e 50 53
e 50 58
e 50 61
e 50 65
e 50 66
e 50 68
e 50 70
e 50 72
e 50 77
e 50 79
e 50 81
e 50 85
e 50 86
e 50 93
e 50 94
e 50 97
e 50 99
e 50 104
e 50 108
e 50 109
e 50 110
e 50 112
e 50 113
e 50 117
e 50 121
e 50 122
e 50 124
e 50 125
e 50 127
e 50 129
e 50 135
e 50 140
e 50 142
e 50 146
e 50 147
e 50 150
e 51 57
e 51 60
e 51 61
e 51 63
e 51 67
e 51 69
e 51 74
e 51 76
e 51 90
e 51 92
e 51 103
e 51 106
e 51 108
e 51 110
e 51 116
e 51 118
e 51 121
e 51 127
e 51 129
e 51 134
e 51 136
e 51 137
e 51 140
e 51 149
e 52 54
e 52 55
e 52 56
e 52 64
e 52 66
e 52 71
e 52 78
e 52 81
e 52 82
e 52 85
e 52 87
e 52 90
e 52 111
e 52 112
e 52 113
e 52 115
e 52 120
e 52 123
e 52 124
e 52 128
e 52 131
e 52 132
e 52 137
e 52 138
e 52 140
e 52 145
e 53 54
e 53 55
e 53 57
e 53 61
e 53 67
e 53 68
e 53 70
e 53 72
e 53 74
e 53 76
e 53 77
e 53 81
e 53 82
e 53 88
e 53 89
e 53 90
e 53 97
e 53 98
e 53 100
e 53 103
e 53 106
e 53 107
e 53 109
e 53 113
e 53 116
e 53 117
e 53 120
e 53 126
e 53 133
e 53 138
e 53 144
e 53 145
e 53 146
e 53 147
e 53 149
e 54 57
e 54 58
e 54 59
e 54 61
e 54 62
e 54 69
e 54 72
e 54 77
e 54 79
e 54 80
e 54 84
e 54 88
e 54 96
e 54 98
e 54 99
e 54 103
e 54 106
e 54 110
e 54 113
e 54 114
e 54 116
e 54 118
e 54 119
e 54 120
e 54 124
e 54 126
e 54 127
e 54 135
e 54 136
e 54 137
e 54 138
e 54 140
e 54 144
e 54 146
e 55 56
e 55 61
e 55 62
e 55 64
e 55 65
e 55 66
e 55 68
e 55 70
e 55 77
e 55 79
e 55 80
e 55 83
e 55 87
e 55 89
e 55 94
e 55 99
e 55 103
e 55 104
e 55 106
e 55 107
e 55 109
e 55 110
e 55 111
e 55 113
e 55 115
e 55 122
e 55 123
e 55 125
e 55 127
e 55 129
e 55 135
e 55 137
e 55 139
e 55 148
e 55 150
e 56 59
e 56 61
e 56 64
e 56 69
e 56 74
e 56 83
e 56 86
e 56 89
e 56 90
e 56 96
e 56 100
e 56 108
e 56 117
e 56 122
e 56 126
e 56 130
e 56 131
e 56 135
e 56 140
e 56 141
e 56 148
e 57 61
e 57 63
e 57 64
e 57 65
e 57 70
e 57 75
e 57 76
e 57 81
e 57 91
e 57 92
e 57 97
e 57 99
e 57 100
e 57 105
e 57 106
e 57 108
e 57 109
e 57 113
e 57 116
e 57 117
e 57 119
e 57 130
e 57 132
e 57 133
e 57 134
e 57 136
e 57 140
e 57 143
e 57 144
e 57 149
e 58 59
e 58 60
e 58 66
e 58 67
e 58 74
e 58 77
e 58 78
e 58 79
e 58 80
e 58 85
e 58 88
e 58 89
e 58 90
e 58 91
e 58 96
e 58 97
e 58 101
e 58 103
e 58 106
e 58 111
e 58 112
e 58 114
e 58 116
e 58 117
e 58 125
e 58 130
e 58 134
e 58 141
e 58 143
e 58 146
e 58 149
e 59 60
e 59 63
e 59 64
e 59 66
e 59 67
e 59 75
e 59 82
e 59 84
e 59 86
e 59 93
e 59 94
e 59 100
e 59 104
e 59 107
e 59 111
e 59 115
e 59 117
e 59 118
e 59 126
e 59 127
e 59 132
e 59 135
e 59 138
e 59 140
e 59 143
e 59 145
e 59 147
e 59 150
e 60 61
e 60 64
e 60 67
e 60 71
e 60 83
e 60 85
e 60 87
e 60 91
e 60 92
e 60 97
e 60 109
e 60 110
e 60 114
e 60 120
e 60 123
e 60 126
e 60 128
e 60 130
e 60 131
e 60 133
e 60 138
e 60 139
e 60 140
e 60 143
e 60 148
e 60 149
e 61 67
e 61 69
e 61 71
e 61 80
e 61 81
e 61 84
e 61 85
e 61 92
e 61 94
e 61 99
e 61 101
e 61 102
e 61 103
e 61 110
e 61 111
e 61 114
e 61 122
e 61 124
e 61 126
e 61 127
e 61 128
e 61 129
e 61 131
e 61 135
e 61 137
e 61 140
e 61 141
e 61 143
e 61 145
e 61 147
e 62 63
e 62 64
e 62 65
e 62 68
e 62 70
e 62 72
e 62 74
e 62 76
e 62 77
e 62 80
e 62 87
e 62 89
e 62 90
e 62 94
e 62 95
e 62 96
e 62 100
e 62 102
e 62 103
e 62 110
e 62 112
e 62 117
e 62 120
e 62 121
e 62 123
e 62 125
e 62 129
e 62 132
e 62 134
e 62 135
e 62 137
e 62 142
e 62 144
e 62 146
e 62 148
e 63 64
e 63 65
e 63 69
e 63 71
e 63 72
e 63 74
e 63 80
e 63 88
e 63 89
e 63 90
e 63 94
e 63 95
e 63 104
e 63 105
e 63 111
e 63 113
e 63 122
e 63 123
e 63 126
e 63 131
e 63 132
e 63 133
e 63 140
e 63 143
e 63 144
e 63 149
e 63 150
e 64 69
e 64 70
e 64 72
e 64 73
e 64 77
e 64 96
e 64 99
e 64 100
e 64 102
e 64 103
e 64 104
e 64 109
e 64 113
e 64 114
e 64 119
e 64 125
e 64 126
e 64 127
e 64 133
e 64 135
e 64 137
e 64 138
e 64 141
e 64 145
e 64 149
e 64 150
e 65 68
e 65 71
e 65 74
e 65 78
e 65 79
e 65 81
e 65 83
e 65 84
e 65 88
e 65 89
e 65 92
e 65 100
e 65 107
e 65 115
e 65 120
e 65 124
e 65 125
e 65 128
e 65 132
e 65 134
e 65 136
e 65 143
e 65 148
e 65 149
e 65 150
e 66 72
e 66 73
e 66 77
e 66 83
e 66 85
e 66 87
e 66 94
e 66 96
e 66 97
e 66 99
e 66 100
e 66 102
e 66 103
e 66 107
e 66 108
e 66 114
e 66 119
e 66 127
e 66 134
e 66 138
e 66 139
e 66 140
e 66 143
e 67 68
e 67 73
e 67 79
e 67 82
e 67 83
e 67 94
e 67 97
e 67 98
e 67 107
e 67 113
e 67 115
e 67 117
e 67 125
e 67 129
e 67 130
e 67 132
e 67 135
e 67 136
e 67 138
e 67 139
e 67 147
e 67 148
e 68 71
e 68 75
e 68 90
e 68 91
e 68 92
e 68 99
e 68 104
e 68 105
e 68 106
e 68 110
e 68 114
e 68 118
e 68 121
e 68 123
e 68 128
e 68 129
e 68 135
e 68 136
e 68 138
e 68 143
e 68 149
e 69 71
e 69 72
e 69 75
e 69 80
e 69 81
e 69 86
e 69 87
e 69 89
e 69 91
e 69 95
e 69 96
e 69 98
e 69 102
e 69 104
e 69 107
e 69 109
e 69 110
e 69 112
e 69 113
e 69 115
e 69 116
e 69 119
e 69 120
e 69 122
e 69 124
e 69 126
e 69 128
e 69 131
e 69 133
e 69 134
e 69 136
e 69 142
e 69 145
e 69 146
e 69 148
e 69 149
e 70 72
e 70 74
e 70 77
e 70 80
e 70 83
e 70 85
e 70 86
e 70 88
e 70 93
e 70 96
e 70 97
e 70 100
e 70 102
e 70 103
e 70 104
e 70 105
e 70 106
e 70 107
e 70 108
e 70 110
e 70 115
e 70 116
e 70 125
e 70 128
e 70 131
e 70 133
e 70 135
e 70 137
e 70 143
e 70 145
e 70 149
e 71 79
e 71 80
e 71 81
e 71 85
e 71 88
e 71 89
e 71 90
e 71 91
e 71 98
e 71 99
e 71 109
e 71 110
e 71 113
e 71 124
e 71 126
e 71 130
e 71 134
e 71 141
e 72 78
e 72 86
e 72 87
e 72 96
e 72 101
e 72 112
e 72 113
e 72 114
e 72 120
e 72 130
e 72 131
e 72 138
e 72 140
e 72 142
e 72 146
e 72 148
e 72 150
e 73 74
e 73 77
e 73 84
e 73 93
e 73 97
e 73 99
e 73 101
e 73 102
e 73 104
e 73 106
e 73 110
e 73 112
e 73 115
e 73 129
e 73 130
e 73 133
e 73 139
e 73 141
e 73 143
e 74 77
e 74 78
e 74 81
e 74 82
e 74 84
e 74 89
e 74 91
e 74 96
e 74 99
e 74 104
e 74 105
e 74 106
e 74 107
e 74 110
e 74 114
e 74 117
e 74 121
e 74 125
e 74 126
e 74 129
e 74 131
e 74 134
e 74 138
e 74 139
e 74 140
e 74 141
e 74 142
e 74 147
e 74 149
e 74 150
e 75 81
e 75 84
e 75 92
e 75 99
e 75 100
e 75 105
e 75 106
e 75 107
e 75 111
e 75 116
e 75 120
e 75 123
e 75 126
e 75 129
e 75 131
e 75 132
e 75 133
e 75 134
e 75 135
e 75 143
e 75 144
e 75 147
e 75 148
e 76 82
e 76 85
e 76 86
e 76 87
e 76 88
e 76 91
e 76 94
e 76 105
e 76 109
e 76 125
e 76 128
e 76 130
e 76 134
e 76 136
e 76 138
e 76 141
e 76 143
e 76 146
e 76 147
e 76 148
e 76 149
e 77 81
e 77 85
e 77 88
e 77 92
e 77 93
e 77 94
e 77 95
e 77 97
e 77 98
e 77 102
e 77 103
e 77 105
e 77 112
e 77 113
e 77 120
e 77 124
e 77 125
e 77 128
e 77 136
e 77 137
e 77 141
e 77 143
e 77 144
e 77 148
e 78 85
e 78 87
e 78 89
e 78 90
e 78 93
e 78 98
e 78 101
e 78 103
e 78 104
e 78 105
e 78 106
e 78 107
e 78 111
e 78 113
e 78 115
e 78 118
e 78 119
e 78 130
e 78 131
e 78 135
e 78 137
e 78 138
e 78 141
e 78 142
e 78 143
e 78 144
e 78 146
e 79 80
e 79 83
e 79 88
e 79 89
e 79 91
e 79 94
e 79 97
e 79 100
e 79 101
e 79 103
e 79 104
e 79 105
e 79 106
e 79 107
e 79 108
e 79 109
e 79 115
e 79 120
e 79 121
e 79 122
e 79 126
e 79 128
e 79 136
e 79 137
e 79 141
e 79 145
e 79 146
e 79 148
e 79 149
e 80 86
e 80 87
e 80 88
e 80 91
e 80 92
e 80 98
e 80 104
e 80 105
e 80 114
e 80 116
e 80 123
e 80 129
e 80 130
e 80 132
e 80 133
e 80 136
e 80 140
e 80 142
e 80 143
e 80 145
e 80 149
e 80 150
e 81 85
e 81 87
e 81 88
e 81 94
e 81 98
e 81 101
e 81 104
e 81 108
e 81 109
e 81 116
e 81 117
e 81 119
e 81 120
e 81 122
e 81 126
e 81 137
e 81 138
e 81 142
e 81 144
e 81 146
e 81 150
e 82 83
e 82 87
e 82 88
e 82 90
e 82 91
e 82 93
e 82 94
e 82 95
e 82 98
e 82 106
e 82 109
e 82 110
e 82 112
e 82 115
e 82 116
e 82 117
e 82 126
e 82 127
e 82 132
e 82 133
e 82 138
e 82 143
e 82 147
e 82 149
e 83 87
e 83 92
e 83 94
e 83 100
e 83 101
e 83 105
e 83 108
e 83 114
e 83 115
e 83 119
e 83 120
e 83 121
e 83 122
e 83 125
e 83 129
e 83 136
e 83 138
e 83 139
e 83 140
e 83 146
e 84 86
e 84 89
e 84 90
e 84 95
e 84 96
e 84 98
e 84 99
e 84 100
e 84 102
e 84 104
e 84 107
e 84 110
e 84 112
e 84 113
e 84 114
e 84 115
e 84 117
e 84 119
e 84 121
e 84 125
e 84 126
e 84 130
e 84 135
e 84 138
e 84 142
e 84 145
e 84 147
e 84 148
e 85 88
e 85 90
e 85 91
e 85 93
e 85 94
e 85 98
e 85 104
e 85 105
e 85 109
e 85 111
e 85 112
e 85 119
e 85 125
e 85 126
e 85 128
e 85 133
e 85 144
e 85 150
e 86 87
e 86 89
e 86 97
e 86 100
e 86 103
e 86 105
e 86 109
e 86 112
e 86 113
e 86 114
e 86 115
e 86 125
e 86 126
e 86 131
e 86 133
e 86 137
e 86 141
e 86 142
e 86 143
e 86 145
e 86 146
e 87 90
e 87 91
e 87 94
e 87 96
e 87 97
e 87 99
e 87 100
e 87 101
e 87 109
e 87 113
e 87 116
e 87 120
e 87 126
e 87 127
e 87 133
e 87 137
e 87 141
e 87 147
e 87 149
e 88 90
e 88 91
e 88 92
e 88 103
e 88 105
e 88 106
e 88 110
e 88 111
e 88 117
e 88 121
e 88 122
e 88 123
e 88 127
e 88 128
e 88 129
e 88 133
e 88 140
e 88 146
e 88 147
e 88 149
e 89 91
e 89 96
e 89 104
e 89 106
e 89 108
e 89 109
e 89 110
e 89 111
e 89 113
e 89 117
e 89 118
e 89 119
e 89 120
e 89 123
e 89 127
e 89 131
e 89 134
e 89 138
e 89 143
e 89 148
e 90 91
e 90 93
e 90 101
e 90 103
e 90 104
e 90 109
e 90 113
e 90 116
e 90 121
e 90 122
e 90 139
e 90 141
e 90 143
e 90 144
e 90 145
e 90 149
e 91 92
e 91 93
e 91 94
e 91 97
e 91 104
e 91 106
e 91 107
e 91 113
e 91 115
e 91 117
e 91 121
e 91 124
e 91 125
e 91 128
e 91 142
e 91 144
e 92 94
e 92 98
e 92 99
e 92 103
e 92 104
e 92 105
e 92 109
e 92 112
e 92 117
e 92 124
e 92 127
e 92 128
e 92 134
e 92 143
e 92 144
e 93 95
e 93 101
e 93 109
e 93 110
e 93 117
e 93 120
e 93 126
e 93 127
e 93 135
e 93 136
e 93 137
e 93 142
e 93 143
e 93 144
e 94 96
e 94 99
e 94 101
e 94 105
e 94 108
e 94 109
e 94 114
e 94 118
e 94 123
e 94 126
e 94 131
e 94 142
e 94 146
e 94 148
e 95 99
e 95 102
e 95 110
e 95 119
e 95 124
e 95 129
e 95 130
e 95 134
e 95 137
e 95 141
e 95 143
e 96 100
e 96 101
e 96 103
e 96 106
e 96 110
e 96 115
e 96 116
e 96 118
e 96 122
e 96 123
e 96 124
e 96 126
e 96 133
e 96 134
e 96 135
e 96 137
e 96 140
e 96 145
e 96 146
e 96 149
e 97 98
e 97 99
e 97 101
e 97 102
e 97 105
e 97 108
e 97 109
e 97 110
e 97 111
e 97 113
e 97 116
e 97 120
e 97 124
e 97 125
e 97 127
e 97 130
e 97 131
e 97 134
e 97 136
e 97 141
e 97 145
e 97 146
e 98 103
e 98 106
e 98 109
e 98 110
e 98 112
e 98 114
e 98 116
e 98 117
e 98 118
e 98 136
e 98 143
e 98 145
e 98 147
e 98 150
e 99 107
e 99 116
e 99 118
e 99 119
e 99 124
e 99 128
e 99 130
e 99 131
e 99 135
e 99 136
e 99 141
e 99 149
e 100 103
e 100 107
e 100 109
e 100 111
e 100 118
e 100 123
e 100 124
e 100 126
e 100 129
e 100 132
e 100 145
e 100 147
e 101 107
e 101 108
e 101 109
e 101 111
e 101 114
e 101 119
e 101 121
e 101 133
e 101 139
e 101 142
e 101 143
e 101 146
e 101 147
e 101 149
e 102 103
e 102 108
e 102 110
e 102 115
e 102 116
e 102 120
e 102 125
e 102 128
e 102 131
e 102 132
e 102 135
e 102 139
e 102 147
e 103 111
e 103 113
e 103 115
e 103 116
e 103 117
e 103 119
e 103 123
e 103 130
e 103 135
e 103 141
e 103 147
e 103 149
e 104 107
e 104 113
e 104 117
e 104 119
e 104 120
e 104 123
e 104 126
e 104 136
e 104 143
e 104 144
e 105 109
e 105 123
e 105 126
e 105 127
e 105 137
e 105 144
e 105 145
e 106 109
e 106 115
e 106 116
e 106 119
e 106 132
e 106 133
e 106 137
e 106 138
e 106 139
e 106 142
e 106 147
e 106 149
e 107 111
e 107 113
e 107 114
e 107 117
e 107 118
e 107 120
e 107 121
e 107 122
e 107 127
e 107 128
e 107 135
e 107 137
e 107 138
e 107 140
e 107 141
e 107 143
e 107 148
e 108 109
e 108 112
e 108 113
e 108 116
e 108 133
e 108 144
e 108 145
e 108 146
e 109 112
e 109 115
e 109 121
e 109 122
e 109 124
e 109 128
e 109 133
e 109 135
e 109 137
e 109 139
e 109 140
e 109 141
e 109 144
e 110 112
e 110 116
e 110 124
e 110 126
e 110 128
e 110 131
e 110 135
e 110 141
e 110 142
e 110 143
e 111 112
e 111 113
e 111 114
e 111 117
e 111 118
e 111 121
e 111 122
e 111 123
e 111 125
e 111 130
e 111 137
e 111 138
e 111 140
e 111 141
e 111 142
e 111 143
e 111 146
e 112 116
e 112 118
e 112 119
e 112 123
e 112 124
e 112 127
e 112 136
e 112 138
e 112 142
e 112 143
e 112 147
e 112 149
e 112 150
e 113 118
e 113 120
e 113 124
e 113 127
e 113 128
e 113 131
e 113 138
e 113 139
e 113 140
e 113 145
e 113 146
e 113 148
e 114 115
e 114 116
e 114 127
e 114 128
e 114 137
e 114 138
e 114 139
e 114 140
e 114 142
e 114 146
e 115 131
e 115 132
e 115 135
e 115 138
e 115 139
e 115 142
e 116 119
e 116 121
e 116 122
e 116 123
e 116 124
e 116 125
e 116 126
e 116 141
e 116 143
e 116 144
e 116 148
e 116 150
e 117 119
e 117 120
e 117 122
e 117 125
e 117 126
e 117 134
e 117 137
e 117 139
e 117 144
e 117 145
e 117 147
e 117 148
e 118 119
e 118 122
e 118 124
e 118 127
e 118 130
e 118 135
e 118 138
e 118 142
e 118 143
e 118 144
e 119 121
e 119 122
e 119 127
e 119 129
e 119 131
e 119 133
e 119 136
e 119 138
e 119 140
e 119 143
e 119 144
e 119 145
e 119 148
e 120 130
e 120 137
e 120 146
e 120 148
e 120 149
e 121 127
e 121 129
e 121 131
e 121 132
e 121 135
e 121 137
e 121 145
e 121 146
e 121 148
e 121 149
e 122 127
e 122 131
e 122 132
e 122 134
e 122 136
e 122 141
e 122 144
e 122 145
e 122 148
e 123 128
e 123 133
e 123 135
e 123 138
e 123 142
e 123 144
e 123 150
e 124 125
e 124 139
e 124 141
e 124 143
e 124 145
e 124 146
e 124 147
e 124 148
e 125 126
e 125 127
e 125 134
e 125 135
e 125 136
e 125 137
e 125 138
e 125 141
e 125 142
e 125 144
e 125 147
e 125 150
e 126 128
e 126 131
e 126 134
e 126 136
e 126 138
e 126 140
e 126 145
e 126 146
e 127 128
e 127 130
e 127 134
e 127 143
e 127 146
e 128 129
e 128 130
e 128 137
e 128 142
e 128 143
e 128 145
e 128 146
e 129 130
e 129 132
e 129 133
e 129 138
e 129 139
e 130 135
e 130 139
e 130 142
e 130 148
e 130 150
e 131 133
e 131 139
e 131 140
e 131 147
e 131 148
e 132 134
e 132 135
e 132 147
e 132 148
e 132 149
e 132 150
e 133 135
e 133 137
e 133 140
e 133 141
e 133 142
e 133 145
e 133 146
e 133 148
e 134 136
e 134 139
e 134 140
e 134 144
e 134 148
e 135 136
e 135 137
e 135 141
e 135 143
e 135 144
e 135 146
e 135 147
e 136 141
e 136 142
e 136 150
e 137 140
e 137 144
e 137 145
e 137 147
e 137 149
e 138 139
e 138 140
e 138 141
e 138 143
e 138 146
e 138 147
e 138 148
e 139 140
e 139 147
e 139 150
e 140 141
e 140 142
e 140 146
e 140 150
e 141 143
e 141 145
e 141 147
e 141 148
e 141 149
e 142 143
e 142 144
e 142 148
e 142 150
e 143 147
e 143 149
e 144 145
e 144 149
e 146 148
e 146 150
e 147 149
e 149 150
